solution status: optimal solution found
objective value:                                    0
shell_j_$_35                                        1 	(obj:0)
shell_j_$_41                                        1 	(obj:0)
shell_j_$_40                                        1 	(obj:0)
shell_j_$_39                                        1 	(obj:0)
shell_j_$_42                                        1 	(obj:0)
shell_j_$_31                                        1 	(obj:0)
shell_j_$_38                                        1 	(obj:0)
shell_j_$_36                                        1 	(obj:0)
shell_j_$_33                                        1 	(obj:0)
shell_j_$_34                                        1 	(obj:0)
shell_j_$_37                                        1 	(obj:0)
shell_j_$_32                                        1 	(obj:0)
shell_j_$_30                                        1 	(obj:0)
$_31_y                                             16 	(obj:0)
$_31_z                                             13 	(obj:0)
$_40_x                                             -1 	(obj:0)
$_40_y                                             16 	(obj:0)
$_38_x                                             -7 	(obj:0)
$_38_y                                             16 	(obj:0)
$_38_z                                             17 	(obj:0)
$_40_z                                             17 	(obj:0)
$_35_y                                             16 	(obj:0)
$_36_x                                             -6 	(obj:0)
$_36_y                                             16 	(obj:0)
$_36_z                                             18 	(obj:0)
$_41_x                                              1 	(obj:0)
$_39_x                                             -5 	(obj:0)
$_33_x                                             -3 	(obj:0)
$_33_y                                             16 	(obj:0)
$_33_z                                             11 	(obj:0)
$_39_y                                             16 	(obj:0)
$_39_z                                             17 	(obj:0)
$_34_x                                            -11 	(obj:0)
$_34_y                                             16 	(obj:0)
$_34_z                                             13 	(obj:0)
$_41_y                                             16 	(obj:0)
$_41_z                                             12 	(obj:0)
$_37_x                                             -6 	(obj:0)
$_37_y                                             16 	(obj:0)
$_37_z                                             17 	(obj:0)
$_42_x                                              1 	(obj:0)
$_42_y                                             16 	(obj:0)
$_32_x                                             -4 	(obj:0)
$_32_y                                             16 	(obj:0)
$_32_z                                             13 	(obj:0)
$_42_z                                             13 	(obj:0)
$_35_z                                             14 	(obj:0)
$_30_x                                             -1 	(obj:0)
$_30_y                                             16 	(obj:0)
$_30_z                                             15 	(obj:0)
$_35_x                                             -4 	(obj:0)
$_31_x                                             -3 	(obj:0)
